language Essence 1.3

letting blksize_delta be function(1 --> 7, 2 --> 7, 3 --> 7, 4 --> 7, 5 --> 7, 6 --> 7, 7 --> 7)
letting maxcars be function(1 --> 10, 2 --> 10, 3 --> 10, 4 --> 10, 5 --> 10, 6 --> 10, 7 --> 10)
letting n_cars be 256
letting n_classes be 82
letting n_options be 7
letting quantity be
        function(1 --> 3, 2 --> 10, 3 --> 6, 4 --> 3, 5 --> 3, 6 --> 3, 7 --> 3, 8 --> 3, 9 --> 3, 10 --> 3, 11 --> 3,
                 12 --> 3, 13 --> 3, 14 --> 3, 15 --> 3, 16 --> 3, 17 --> 3, 18 --> 3, 19 --> 3, 20 --> 3, 21 --> 3,
                 22 --> 3, 23 --> 3, 24 --> 3, 25 --> 3, 26 --> 3, 27 --> 3, 28 --> 3, 29 --> 3, 30 --> 3, 31 --> 3,
                 32 --> 3, 33 --> 3, 34 --> 3, 35 --> 3, 36 --> 3, 37 --> 3, 38 --> 3, 39 --> 3, 40 --> 3, 41 --> 3,
                 42 --> 3, 43 --> 3, 44 --> 3, 45 --> 3, 46 --> 3, 47 --> 3, 48 --> 3, 49 --> 3, 50 --> 3, 51 --> 3,
                 52 --> 3, 53 --> 3, 54 --> 3, 55 --> 3, 56 --> 3, 57 --> 3, 58 --> 3, 59 --> 3, 60 --> 3, 61 --> 3,
                 62 --> 3, 63 --> 3, 64 --> 3, 65 --> 3, 66 --> 3, 67 --> 3, 68 --> 3, 69 --> 3, 70 --> 3, 71 --> 3,
                 72 --> 3, 73 --> 3, 74 --> 3, 75 --> 3, 76 --> 3, 77 --> 3, 78 --> 3, 79 --> 3, 80 --> 3, 81 --> 3,
                 82 --> 3)
letting usage be
        relation((1, 7), (2, 4), (2, 7), (3, 2), (3, 3), (4, 2), (4, 3), (4, 4), (5, 1), (5, 3), (6, 3), (6, 4), (7, 4),
                 (7, 5), (8, 1), (9, 3), (10, 5), (11, 1), (11, 4), (12, 1), (12, 2), (12, 3), (12, 5), (13, 7),
                 (14, 1), (15, 3), (15, 6), (16, 5), (16, 6), (16, 7), (17, 3), (17, 7), (18, 1), (18, 5), (19, 3),
                 (19, 5), (19, 6), (19, 7), (20, 4), (20, 5), (20, 7), (21, 2), (21, 4), (21, 6), (22, 2), (22, 7),
                 (23, 5), (24, 2), (25, 7), (26, 6), (27, 3), (27, 4), (28, 4), (28, 5), (28, 6), (28, 7), (29, 6),
                 (30, 1), (31, 1), (32, 4), (32, 5), (33, 5), (33, 7), (34, 1), (34, 6), (35, 2), (35, 7), (36, 7),
                 (37, 7), (38, 5), (38, 7), (39, 6), (40, 2), (40, 4), (40, 5), (41, 5), (41, 7), (42, 1), (43, 2),
                 (43, 4), (44, 1), (44, 3), (44, 5), (45, 7), (46, 5), (47, 5), (47, 7), (48, 6), (49, 2), (49, 5),
                 (50, 4), (50, 7), (51, 7), (52, 6), (53, 1), (53, 5), (54, 1), (54, 3), (55, 5), (56, 3), (56, 6),
                 (57, 4), (57, 6), (58, 3), (59, 2), (59, 4), (60, 5), (61, 7), (62, 3), (62, 5), (63, 3), (64, 2),
                 (65, 1), (66, 5), (66, 6), (67, 5), (68, 5), (69, 2), (69, 3), (70, 6), (71, 1), (71, 4), (72, 1),
                 (72, 3), (72, 6), (73, 7), (74, 1), (75, 2), (76, 2), (77, 2), (77, 5), (78, 3), (79, 1), (79, 2),
                 (79, 5), (80, 2), (80, 3), (81, 7), (82, 7))
$ Visualisation for usage
$  1  7
$  2  4
$  2  7
$  3  2
$  3  3
$  4  2
$  4  3
$  4  4
$  5  1
$  5  3
$  6  3
$  6  4
$  7  4
$  7  5
$  8  1
$  9  3
$ 10  5
$ 11  1
$ 11  4
$ 12  1
$ 12  2
$ 12  3
$ 12  5
$ 13  7
$ 14  1
$ 15  3
$ 15  6
$ 16  5
$ 16  6
$ 16  7
$ 17  3
$ 17  7
$ 18  1
$ 18  5
$ 19  3
$ 19  5
$ 19  6
$ 19  7
$ 20  4
$ 20  5
$ 20  7
$ 21  2
$ 21  4
$ 21  6
$ 22  2
$ 22  7
$ 23  5
$ 24  2
$ 25  7
$ 26  6
$ 27  3
$ 27  4
$ 28  4
$ 28  5
$ 28  6
$ 28  7
$ 29  6
$ 30  1
$ 31  1
$ 32  4
$ 32  5
$ 33  5
$ 33  7
$ 34  1
$ 34  6
$ 35  2
$ 35  7
$ 36  7
$ 37  7
$ 38  5
$ 38  7
$ 39  6
$ 40  2
$ 40  4
$ 40  5
$ 41  5
$ 41  7
$ 42  1
$ 43  2
$ 43  4
$ 44  1
$ 44  3
$ 44  5
$ 45  7
$ 46  5
$ 47  5
$ 47  7
$ 48  6
$ 49  2
$ 49  5
$ 50  4
$ 50  7
$ 51  7
$ 52  6
$ 53  1
$ 53  5
$ 54  1
$ 54  3
$ 55  5
$ 56  3
$ 56  6
$ 57  4
$ 57  6
$ 58  3
$ 59  2
$ 59  4
$ 60  5
$ 61  7
$ 62  3
$ 62  5
$ 63  3
$ 64  2
$ 65  1
$ 66  5
$ 66  6
$ 67  5
$ 68  5
$ 69  2
$ 69  3
$ 70  6
$ 71  1
$ 71  4
$ 72  1
$ 72  3
$ 72  6
$ 73  7
$ 74  1
$ 75  2
$ 76  2
$ 77  2
$ 77  5
$ 78  3
$ 79  1
$ 79  2
$ 79  5
$ 80  2
$ 80  3
$ 81  7
$ 82  7

